p wcnf 66 162 7
1 61 0
1 62 0
1 63 0
1 64 0
1 65 0
1 66 0
7 1 2 0
7 -1 -2 0
7 3 4 0
7 -3 -4 0
7 5 6 0
7 -5 -6 0
7 -1 7 -10 0
7 -1 -7 10 0
7 -3 8 -11 0
7 -3 -8 11 0
7 -5 9 -12 0
7 -5 -9 12 0
7 -1 10 -13 0
7 -3 11 -14 0
7 -5 12 -15 0
7 -1 13 -16 0
7 -1 -13 16 0
7 -3 14 -17 0
7 -3 -14 17 0
7 -5 15 -18 0
7 -5 -15 18 0
7 -1 16 -19 0
7 -3 17 -20 0
7 -5 18 -21 0
7 -1 19 -22 0
7 -1 -19 22 0
7 -3 20 -23 0
7 -3 -20 23 0
7 -5 21 -24 0
7 -5 -21 24 0
7 -2 7 -10 0
7 -4 8 -11 0
7 -6 9 -12 0
7 -2 10 -19 0
7 -4 11 -20 0
7 -6 12 -21 0
7 -2 19 -13 0
7 -4 20 -14 0
7 -6 21 -15 0
7 -2 13 -22 0
7 -2 -13 22 0
7 -4 14 -23 0
7 -4 -14 23 0
7 -6 15 -24 0
7 -6 -15 24 0
7 -2 22 -16 0
7 -4 23 -17 0
7 -6 24 -18 0
7 -25 8 7 0
7 -29 11 10 0
7 -33 14 13 0
7 -37 17 16 0
7 -41 20 19 0
7 -45 23 22 0
7 -26 7 0
7 -26 -8 0
7 -30 10 0
7 -30 -11 0
7 -34 13 0
7 -34 -14 0
7 -38 16 0
7 -38 -17 0
7 -42 19 0
7 -42 -20 0
7 -46 22 0
7 -46 -23 0
7 -27 9 0
7 -27 -7 0
7 -31 12 0
7 -31 -10 0
7 -35 15 0
7 -35 -13 0
7 -39 18 0
7 -39 -16 0
7 -43 21 0
7 -43 -19 0
7 -47 24 0
7 -47 -22 0
7 -28 -9 -7 0
7 -32 -12 -10 0
7 -36 -15 -13 0
7 -40 -18 -16 0
7 -44 -21 -19 0
7 -48 -24 -22 0
7 25 -8 -7 0
7 26 -7 8 0
7 27 -9 7 0
7 28 9 7 0
7 29 -11 -10 0
7 30 -10 11 0
7 31 -12 10 0
7 32 12 10 0
7 33 -14 -13 0
7 34 -13 14 0
7 35 -15 13 0
7 36 15 13 0
7 37 -17 -16 0
7 38 -16 17 0
7 39 -18 16 0
7 40 18 16 0
7 41 -20 -19 0
7 42 -19 20 0
7 43 -21 19 0
7 44 21 19 0
7 45 -23 -22 0
7 46 -22 23 0
7 47 -24 22 0
7 48 24 22 0
7 -49 -50 0
7 -49 -51 0
7 -50 -51 0
7 -52 -53 0
7 -52 -54 0
7 -53 -54 0
7 -55 -56 0
7 -55 -57 0
7 -56 -57 0
7 -58 -59 0
7 -58 -60 0
7 -59 -60 0
7 -1 7 0
7 -1 -22 0
7 -2 7 0
7 -2 -16 0
7 -3 8 0
7 -3 -23 0
7 -4 8 0
7 -4 -17 0
7 -5 9 0
7 -5 -24 0
7 -6 9 0
7 -6 -18 0
7 -61 -25 49 0
7 -61 -26 52 0
7 -61 -27 55 0
7 -61 -28 58 0
7 -62 -29 49 0
7 -62 -30 52 0
7 -62 -31 55 0
7 -62 -32 58 0
7 -63 -33 50 0
7 -63 -34 53 0
7 -63 -35 56 0
7 -63 -36 59 0
7 -64 -37 50 0
7 -64 -38 53 0
7 -64 -39 56 0
7 -64 -40 59 0
7 -65 -41 51 0
7 -65 -42 54 0
7 -65 -43 57 0
7 -65 -44 60 0
7 -66 -45 51 0
7 -66 -46 54 0
7 -66 -47 57 0
7 -66 -48 60 0
